************************************************************************
file with basedata            : mm11_.bas
initial value random generator: 447042032
************************************************************************
projects                      :  1
jobs (incl. supersource/sink ):  12
horizon                       :  80
RESOURCES
  - renewable                 :  2   R
  - nonrenewable              :  2   N
  - doubly constrained        :  0   D
************************************************************************
PROJECT INFORMATION:
pronr.  #jobs rel.date duedate tardcost  MPM-Time
    1     10      0       21        6       21
************************************************************************
PRECEDENCE RELATIONS:
jobnr.    #modes  #successors   successors
   0        1          3           1   2   3
   1        3          1           6
   2        3          2           4   5
   3        3          3           4   5  10
   4        3          2           6   9
   5        3          2           8   9
   6        3          1           7
   7        3          1           8
   8        3          1          11
   9        3          1          11
  10        3          1          11
  11        1          0        
************************************************************************
REQUESTS/DURATIONS:
jobnr. mode duration  R 1  R 2  R 3  R 4  E(W 1)  E(W 2)
------------------------------------------------------------------------
  0      1     0       0    0    0    0     0       0
  1      1     5       3    0    5    0    15      25
  2      1     5       7    0    5    0    35      25
  3      1     5       4    0    0    4    20      20
  4      1     4       3    0    0    6    12      24
  5      1     2       6    0    0    7    12      14
  6      1     2      10    0    2    0    20       4
  7      1     5       1    0    0    4    10      20
  8      1     5       0    6    7    0    30      35
  9      1     5       7    0    0    8    35      40
 10      1     3       0    7    0   10    21      30
 11      1     0       0    0    0    0     0       0
************************************************************************
RESOURCEAVAILABILITIES:
  R 1  R 2
   25   75
************************************************************************
RESOURCE LIMITS:
jobnr.  l(R 1)  u(R 1)  l(R 2)  u(R 2)
------------------------------------------------------------------------
  0        0       0       0       0
  1        2       3       3       5
  2        4       7       3       5
  3        2       4       2       4
  4        2       3       3       6
  5        3       6       4       7
  6        5      10       1       2
  7        1       2       2       4
  8        3       6       4       7
  9        4       7       4       8
 10        4       7       5      10
 11        0       0       0       0
************************************************************************
SCENARIOS:
------------------------------------------------------------------------
RESOURCE k = 1
s = 1: (0, 12, 40, 20, 12, 16, 28, 12, 27, 37, 22, 0)
s = 2: (0, 17, 23, 15, 11, 8, 20, 10, 30, 33, 26, 0)
s = 3: (0, 18, 50, 20, 12, 13, 17, 8, 21, 22, 22, 0)
s = 4: (0, 12, 22, 28, 11, 10, 13, 10, 26, 28, 13, 0)
s = 5: (0, 10, 42, 23, 11, 18, 12, 13, 24, 43, 29, 0)
s = 6: (0, 29, 36, 19, 14, 10, 28, 6, 34, 25, 16, 0)
s = 7: (0, 21, 38, 17, 10, 16, 26, 9, 30, 33, 18, 0)
s = 8: (0, 11, 31, 20, 9, 11, 14, 10, 33, 44, 17, 0)
s = 9: (0, 13, 28, 12, 15, 10, 25, 12, 44, 20, 27, 0)
s = 10: (0, 18, 52, 19, 9, 8, 16, 12, 25, 38, 21, 0)
s = 11: (0, 9, 27, 21, 9, 10, 32, 13, 39, 23, 19, 0)
s = 12: (0, 14, 28, 12, 13, 12, 16, 12, 18, 26, 19, 0)
s = 13: (0, 23, 39, 14, 9, 10, 32, 12, 38, 34, 24, 0)
s = 14: (0, 18, 34, 21, 9, 11, 26, 10, 36, 32, 17, 0)
s = 15: (0, 11, 31, 17, 15, 14, 23, 15, 30, 37, 27, 0)
s = 16: (0, 14, 32, 17, 12, 11, 16, 12, 17, 53, 20, 0)
s = 17: (0, 26, 28, 13, 16, 17, 23, 9, 47, 37, 29, 0)
s = 18: (0, 10, 24, 19, 11, 13, 26, 10, 36, 35, 26, 0)
s = 19: (0, 15, 28, 12, 8, 13, 26, 7, 26, 44, 20, 0)
s = 20: (0, 15, 30, 16, 12, 18, 20, 15, 26, 23, 16, 0)
s = 21: (0, 9, 23, 16, 15, 10, 21, 9, 23, 39, 21, 0)
s = 22: (0, 21, 31, 29, 12, 11, 29, 16, 17, 28, 22, 0)
s = 23: (0, 11, 42, 16, 16, 14, 31, 10, 26, 30, 27, 0)
s = 24: (0, 21, 37, 25, 12, 13, 15, 15, 35, 44, 17, 0)
s = 25: (0, 25, 24, 19, 10, 14, 12, 12, 25, 44, 13, 0)
s = 26: (0, 18, 46, 19, 13, 18, 20, 6, 33, 50, 21, 0)
s = 27: (0, 21, 42, 20, 15, 18, 26, 9, 22, 43, 37, 0)
s = 28: (0, 19, 38, 20, 20, 11, 14, 7, 42, 39, 20, 0)
s = 29: (0, 26, 46, 26, 12, 10, 34, 6, 21, 28, 33, 0)
s = 30: (0, 18, 38, 21, 14, 10, 22, 12, 20, 29, 19, 0)
s = 31: (0, 16, 25, 16, 10, 10, 22, 8, 26, 58, 19, 0)
s = 32: (0, 11, 58, 23, 15, 11, 30, 12, 22, 21, 26, 0)
s = 33: (0, 19, 37, 30, 15, 13, 16, 8, 33, 40, 19, 0)
s = 34: (0, 10, 66, 15, 11, 12, 26, 8, 18, 31, 23, 0)
s = 35: (0, 14, 57, 27, 13, 13, 18, 12, 30, 26, 24, 0)
s = 36: (0, 19, 37, 27, 12, 18, 12, 11, 33, 43, 28, 0)
s = 37: (0, 12, 25, 15, 23, 17, 17, 9, 21, 24, 17, 0)
s = 38: (0, 17, 39, 31, 12, 12, 15, 14, 19, 34, 15, 0)
s = 39: (0, 13, 35, 20, 12, 9, 19, 11, 27, 36, 16, 0)
s = 40: (0, 15, 39, 17, 19, 9, 12, 9, 23, 20, 24, 0)
s = 41: (0, 12, 40, 23, 14, 24, 22, 14, 18, 30, 19, 0)
s = 42: (0, 12, 28, 15, 20, 13, 22, 12, 42, 42, 25, 0)
s = 43: (0, 13, 29, 26, 18, 16, 15, 9, 32, 32, 17, 0)
s = 44: (0, 9, 45, 27, 10, 11, 15, 11, 19, 33, 17, 0)
s = 45: (0, 14, 46, 22, 10, 15, 29, 9, 28, 41, 36, 0)
s = 46: (0, 9, 28, 22, 13, 16, 17, 11, 28, 26, 21, 0)
s = 47: (0, 14, 46, 14, 12, 10, 18, 8, 31, 36, 16, 0)
s = 48: (0, 15, 25, 14, 20, 13, 25, 8, 24, 51, 29, 0)
s = 49: (0, 13, 25, 19, 16, 10, 18, 14, 49, 33, 14, 0)
s = 50: (0, 11, 37, 13, 8, 17, 13, 11, 34, 30, 13, 0)
s = 51: (0, 10, 28, 16, 12, 12, 18, 7, 35, 57, 25, 0)
s = 52: (0, 19, 23, 21, 19, 12, 23, 11, 30, 37, 13, 0)
s = 53: (0, 11, 41, 19, 11, 17, 28, 7, 30, 35, 15, 0)
s = 54: (0, 9, 48, 21, 14, 12, 26, 16, 24, 36, 17, 0)
s = 55: (0, 22, 59, 17, 10, 7, 17, 13, 29, 30, 14, 0)
s = 56: (0, 23, 38, 17, 17, 8, 13, 6, 44, 27, 19, 0)
s = 57: (0, 14, 37, 17, 12, 13, 18, 8, 33, 40, 19, 0)
s = 58: (0, 18, 33, 22, 11, 8, 21, 12, 34, 31, 21, 0)
s = 59: (0, 9, 28, 20, 13, 20, 15, 9, 35, 36, 16, 0)
s = 60: (0, 23, 28, 28, 17, 12, 13, 8, 21, 24, 21, 0)
s = 61: (0, 13, 47, 17, 13, 16, 26, 12, 52, 37, 28, 0)
s = 62: (0, 21, 44, 22, 15, 15, 26, 9, 31, 50, 23, 0)
s = 63: (0, 15, 31, 13, 9, 12, 22, 15, 22, 32, 21, 0)
s = 64: (0, 9, 33, 19, 7, 14, 23, 9, 31, 30, 27, 0)
s = 65: (0, 15, 25, 14, 10, 8, 26, 8, 35, 31, 19, 0)
s = 66: (0, 11, 29, 19, 17, 10, 25, 11, 23, 35, 27, 0)
s = 67: (0, 21, 33, 29, 11, 11, 20, 8, 26, 22, 24, 0)
s = 68: (0, 19, 57, 22, 11, 16, 19, 12, 28, 40, 31, 0)
s = 69: (0, 11, 35, 21, 10, 18, 18, 13, 40, 18, 18, 0)
s = 70: (0, 16, 27, 17, 13, 10, 21, 14, 23, 25, 26, 0)
s = 71: (0, 24, 37, 27, 16, 8, 28, 9, 26, 35, 28, 0)
s = 72: (0, 12, 39, 13, 11, 11, 29, 8, 33, 49, 30, 0)
s = 73: (0, 18, 31, 25, 8, 11, 14, 11, 37, 40, 23, 0)
s = 74: (0, 18, 35, 19, 12, 11, 15, 10, 26, 63, 23, 0)
s = 75: (0, 12, 20, 23, 9, 13, 16, 8, 34, 39, 25, 0)
s = 76: (0, 20, 56, 15, 18, 8, 41, 8, 27, 29, 23, 0)
s = 77: (0, 16, 34, 23, 10, 11, 20, 14, 24, 43, 14, 0)
s = 78: (0, 20, 38, 25, 9, 11, 15, 12, 23, 37, 35, 0)
s = 79: (0, 17, 27, 14, 10, 15, 18, 9, 30, 36, 17, 0)
s = 80: (0, 13, 35, 23, 13, 14, 19, 8, 43, 43, 23, 0)
s = 81: (0, 13, 36, 29, 14, 9, 21, 14, 30, 37, 24, 0)
s = 82: (0, 10, 46, 29, 11, 19, 15, 8, 31, 29, 38, 0)
s = 83: (0, 14, 40, 22, 12, 8, 35, 16, 26, 20, 31, 0)
s = 84: (0, 13, 22, 17, 13, 14, 17, 9, 28, 31, 19, 0)
s = 85: (0, 23, 33, 15, 15, 12, 22, 12, 32, 51, 17, 0)
s = 86: (0, 10, 41, 20, 12, 17, 20, 14, 37, 20, 25, 0)
s = 87: (0, 10, 39, 14, 10, 8, 22, 16, 29, 44, 20, 0)
s = 88: (0, 9, 32, 21, 19, 17, 16, 9, 23, 22, 20, 0)
s = 89: (0, 12, 29, 14, 15, 18, 14, 7, 30, 51, 20, 0)
s = 90: (0, 22, 37, 15, 14, 15, 16, 9, 30, 45, 23, 0)
s = 91: (0, 18, 50, 14, 9, 14, 17, 7, 20, 23, 24, 0)
s = 92: (0, 17, 31, 14, 14, 8, 12, 8, 32, 51, 14, 0)
s = 93: (0, 22, 35, 19, 9, 11, 13, 13, 37, 45, 13, 0)
s = 94: (0, 16, 40, 27, 14, 8, 22, 11, 39, 36, 14, 0)
s = 95: (0, 10, 25, 12, 19, 17, 15, 8, 18, 36, 22, 0)
s = 96: (0, 15, 36, 28, 7, 15, 15, 16, 46, 52, 24, 0)
s = 97: (0, 19, 36, 15, 19, 7, 21, 11, 20, 27, 12, 0)
s = 98: (0, 14, 20, 21, 16, 11, 22, 10, 35, 50, 14, 0)
s = 99: (0, 15, 28, 15, 18, 13, 26, 15, 33, 32, 22, 0)
s = 100: (0, 11, 32, 31, 8, 10, 22, 11, 40, 32, 17, 0)
s = 101: (0, 20, 37, 18, 10, 15, 22, 11, 28, 28, 20, 0)
s = 102: (0, 11, 48, 16, 9, 11, 14, 10, 29, 55, 25, 0)
s = 103: (0, 19, 30, 22, 21, 7, 26, 11, 38, 38, 11, 0)
s = 104: (0, 16, 33, 18, 20, 10, 21, 7, 37, 36, 29, 0)
s = 105: (0, 16, 33, 24, 12, 11, 16, 12, 29, 34, 24, 0)
s = 106: (0, 12, 47, 19, 15, 9, 17, 14, 23, 35, 23, 0)
s = 107: (0, 9, 21, 15, 14, 11, 15, 7, 23, 57, 19, 0)
s = 108: (0, 14, 29, 24, 15, 13, 24, 13, 26, 33, 14, 0)
s = 109: (0, 23, 31, 25, 17, 17, 23, 9, 23, 52, 25, 0)
s = 110: (0, 13, 33, 19, 14, 14, 13, 11, 41, 52, 16, 0)
s = 111: (0, 14, 44, 17, 9, 10, 17, 12, 27, 41, 19, 0)
s = 112: (0, 11, 28, 20, 11, 13, 16, 13, 24, 52, 25, 0)
s = 113: (0, 15, 30, 24, 8, 11, 17, 15, 21, 29, 25, 0)
s = 114: (0, 11, 47, 18, 9, 10, 22, 8, 22, 31, 13, 0)
s = 115: (0, 14, 37, 24, 13, 11, 16, 12, 37, 39, 19, 0)
s = 116: (0, 12, 25, 13, 12, 9, 12, 12, 28, 31, 24, 0)
s = 117: (0, 21, 42, 29, 13, 8, 22, 11, 21, 54, 15, 0)
s = 118: (0, 17, 39, 23, 12, 13, 12, 12, 32, 61, 27, 0)
s = 119: (0, 10, 32, 16, 22, 18, 21, 10, 21, 40, 27, 0)
s = 120: (0, 12, 35, 19, 16, 12, 22, 10, 40, 22, 23, 0)
s = 121: (0, 11, 30, 24, 16, 10, 21, 12, 37, 27, 23, 0)
s = 122: (0, 15, 33, 28, 12, 13, 31, 11, 29, 35, 20, 0)
s = 123: (0, 26, 59, 17, 12, 17, 33, 10, 27, 35, 12, 0)
s = 124: (0, 15, 30, 21, 9, 11, 20, 7, 19, 35, 19, 0)
s = 125: (0, 22, 29, 20, 13, 18, 18, 10, 30, 24, 13, 0)
s = 126: (0, 15, 38, 14, 11, 21, 23, 12, 24, 42, 13, 0)
s = 127: (0, 26, 30, 21, 11, 7, 24, 15, 48, 28, 34, 0)
s = 128: (0, 14, 31, 16, 20, 11, 18, 9, 21, 23, 17, 0)
s = 129: (0, 20, 34, 13, 12, 12, 27, 12, 33, 31, 29, 0)
s = 130: (0, 15, 36, 15, 15, 13, 23, 8, 41, 22, 16, 0)
s = 131: (0, 21, 48, 27, 11, 16, 24, 7, 41, 42, 28, 0)
s = 132: (0, 14, 68, 17, 10, 17, 16, 9, 21, 32, 19, 0)
s = 133: (0, 19, 31, 29, 11, 13, 19, 14, 31, 45, 23, 0)
s = 134: (0, 13, 51, 29, 14, 12, 22, 12, 32, 29, 13, 0)
s = 135: (0, 15, 34, 12, 7, 16, 12, 9, 16, 41, 21, 0)
s = 136: (0, 12, 33, 23, 10, 11, 29, 10, 23, 64, 13, 0)
s = 137: (0, 22, 26, 31, 15, 10, 19, 8, 29, 31, 21, 0)
s = 138: (0, 18, 59, 28, 10, 11, 17, 8, 29, 35, 18, 0)
s = 139: (0, 16, 33, 22, 13, 18, 26, 15, 35, 22, 16, 0)
s = 140: (0, 10, 43, 29, 15, 14, 32, 9, 25, 28, 16, 0)
s = 141: (0, 11, 38, 17, 17, 12, 28, 16, 51, 41, 29, 0)
s = 142: (0, 16, 33, 23, 12, 12, 19, 8, 30, 22, 21, 0)
s = 143: (0, 15, 37, 25, 15, 10, 27, 7, 38, 21, 21, 0)
s = 144: (0, 12, 56, 17, 19, 13, 24, 10, 35, 53, 27, 0)
s = 145: (0, 17, 39, 21, 11, 15, 15, 12, 50, 34, 16, 0)
s = 146: (0, 14, 34, 27, 13, 13, 23, 12, 17, 21, 14, 0)
s = 147: (0, 13, 26, 19, 8, 12, 28, 11, 44, 40, 23, 0)
s = 148: (0, 11, 23, 22, 12, 11, 15, 6, 28, 40, 20, 0)
s = 149: (0, 18, 38, 25, 12, 11, 23, 11, 33, 49, 20, 0)
s = 150: (0, 13, 42, 24, 14, 9, 21, 8, 22, 60, 35, 0)
s = 151: (0, 26, 43, 26, 16, 8, 24, 12, 28, 47, 17, 0)
s = 152: (0, 20, 20, 29, 13, 9, 21, 13, 29, 37, 22, 0)
s = 153: (0, 11, 30, 23, 11, 10, 18, 8, 20, 30, 27, 0)
s = 154: (0, 19, 24, 15, 17, 13, 18, 19, 18, 52, 23, 0)
s = 155: (0, 11, 55, 17, 14, 15, 18, 10, 36, 35, 13, 0)
s = 156: (0, 21, 46, 12, 9, 14, 16, 12, 29, 34, 29, 0)
s = 157: (0, 16, 35, 17, 16, 17, 26, 8, 25, 35, 18, 0)
s = 158: (0, 20, 32, 17, 10, 12, 24, 11, 41, 28, 24, 0)
s = 159: (0, 13, 41, 24, 13, 18, 29, 9, 44, 33, 14, 0)
s = 160: (0, 12, 39, 21, 13, 7, 28, 7, 31, 36, 12, 0)
s = 161: (0, 22, 21, 22, 14, 13, 33, 12, 25, 25, 17, 0)
s = 162: (0, 23, 49, 27, 8, 13, 34, 7, 20, 20, 20, 0)
s = 163: (0, 12, 29, 16, 15, 21, 24, 11, 26, 51, 30, 0)
s = 164: (0, 21, 25, 16, 15, 13, 17, 10, 47, 38, 25, 0)
s = 165: (0, 19, 51, 26, 14, 8, 16, 8, 19, 43, 26, 0)
s = 166: (0, 12, 27, 16, 13, 11, 27, 14, 25, 32, 35, 0)
s = 167: (0, 12, 38, 17, 13, 14, 21, 9, 27, 21, 25, 0)
s = 168: (0, 16, 22, 15, 9, 15, 13, 13, 27, 30, 16, 0)
s = 169: (0, 14, 54, 22, 8, 12, 24, 11, 30, 31, 35, 0)
s = 170: (0, 12, 25, 16, 11, 10, 22, 15, 32, 29, 18, 0)
s = 171: (0, 13, 48, 18, 15, 15, 20, 15, 27, 40, 12, 0)
s = 172: (0, 10, 49, 27, 11, 10, 16, 8, 43, 29, 21, 0)
s = 173: (0, 11, 40, 25, 15, 12, 16, 7, 28, 26, 21, 0)
s = 174: (0, 12, 22, 30, 10, 8, 13, 14, 26, 33, 29, 0)
s = 175: (0, 11, 41, 23, 16, 9, 25, 14, 16, 25, 27, 0)
s = 176: (0, 12, 34, 17, 10, 17, 21, 16, 22, 40, 13, 0)
s = 177: (0, 12, 53, 28, 8, 17, 18, 9, 44, 38, 18, 0)
s = 178: (0, 14, 22, 30, 13, 12, 23, 9, 35, 54, 23, 0)
s = 179: (0, 13, 23, 27, 19, 9, 28, 15, 31, 29, 24, 0)
s = 180: (0, 20, 50, 13, 9, 17, 12, 10, 46, 25, 22, 0)
s = 181: (0, 23, 29, 21, 12, 14, 13, 8, 36, 40, 26, 0)
s = 182: (0, 13, 45, 22, 10, 18, 21, 10, 32, 43, 19, 0)
s = 183: (0, 10, 32, 18, 9, 15, 27, 10, 45, 36, 20, 0)
s = 184: (0, 17, 22, 17, 16, 9, 16, 9, 36, 44, 25, 0)
s = 185: (0, 23, 31, 13, 8, 15, 22, 13, 28, 33, 24, 0)
s = 186: (0, 14, 52, 17, 14, 16, 18, 12, 27, 37, 18, 0)
s = 187: (0, 15, 45, 15, 17, 13, 14, 7, 25, 20, 24, 0)
s = 188: (0, 22, 30, 20, 9, 14, 15, 7, 30, 43, 27, 0)
s = 189: (0, 12, 30, 17, 18, 11, 18, 10, 23, 41, 23, 0)
s = 190: (0, 14, 32, 20, 16, 15, 19, 9, 21, 27, 29, 0)
s = 191: (0, 10, 48, 32, 9, 11, 27, 13, 27, 32, 21, 0)
s = 192: (0, 14, 24, 15, 13, 12, 28, 16, 39, 62, 14, 0)
s = 193: (0, 14, 40, 21, 12, 16, 27, 10, 43, 24, 13, 0)
s = 194: (0, 13, 21, 18, 9, 17, 14, 10, 30, 32, 15, 0)
s = 195: (0, 13, 46, 15, 12, 7, 24, 9, 39, 23, 13, 0)
s = 196: (0, 15, 23, 24, 18, 11, 26, 10, 32, 35, 16, 0)
s = 197: (0, 17, 29, 23, 19, 10, 17, 12, 35, 47, 17, 0)
s = 198: (0, 14, 36, 20, 13, 11, 22, 9, 27, 37, 24, 0)
s = 199: (0, 14, 65, 16, 10, 12, 23, 10, 36, 46, 12, 0)
s = 200: (0, 19, 27, 18, 13, 11, 28, 11, 30, 29, 17, 0)
------------------------------------------------------------------------
RESOURCE k = 2
s = 1: (0, 20, 29, 20, 24, 19, 6, 24, 31, 43, 31, 0)
s = 2: (0, 27, 17, 15, 22, 9, 4, 19, 35, 38, 37, 0)
s = 3: (0, 30, 36, 20, 24, 15, 4, 15, 25, 25, 32, 0)
s = 4: (0, 19, 16, 28, 21, 12, 3, 20, 31, 32, 18, 0)
s = 5: (0, 16, 30, 23, 21, 21, 3, 26, 28, 49, 41, 0)
s = 6: (0, 48, 26, 19, 27, 12, 6, 11, 40, 29, 22, 0)
s = 7: (0, 34, 28, 17, 20, 18, 6, 18, 35, 37, 26, 0)
s = 8: (0, 19, 22, 20, 18, 13, 3, 19, 39, 50, 24, 0)
s = 9: (0, 21, 20, 12, 29, 12, 5, 23, 51, 22, 39, 0)
s = 10: (0, 29, 37, 19, 17, 10, 4, 23, 29, 43, 30, 0)
s = 11: (0, 14, 20, 21, 18, 12, 7, 25, 46, 26, 27, 0)
s = 12: (0, 23, 20, 12, 26, 14, 4, 23, 21, 29, 27, 0)
s = 13: (0, 37, 28, 14, 18, 11, 7, 23, 45, 39, 34, 0)
s = 14: (0, 29, 24, 21, 17, 13, 6, 19, 42, 36, 24, 0)
s = 15: (0, 19, 22, 17, 30, 17, 5, 29, 35, 42, 39, 0)
s = 16: (0, 23, 23, 17, 24, 13, 4, 23, 20, 60, 28, 0)
s = 17: (0, 42, 20, 13, 32, 20, 5, 18, 55, 42, 41, 0)
s = 18: (0, 17, 17, 19, 21, 16, 6, 19, 42, 40, 37, 0)
s = 19: (0, 24, 20, 12, 16, 16, 6, 14, 30, 50, 28, 0)
s = 20: (0, 25, 22, 16, 24, 21, 4, 30, 31, 26, 23, 0)
s = 21: (0, 15, 17, 16, 29, 12, 5, 17, 27, 45, 30, 0)
s = 22: (0, 35, 22, 29, 23, 13, 6, 31, 19, 31, 31, 0)
s = 23: (0, 18, 30, 16, 31, 16, 7, 19, 30, 35, 38, 0)
s = 24: (0, 35, 26, 25, 24, 15, 3, 30, 41, 50, 24, 0)
s = 25: (0, 41, 17, 19, 19, 16, 3, 24, 29, 50, 18, 0)
s = 26: (0, 30, 33, 19, 26, 21, 4, 12, 39, 57, 30, 0)
s = 27: (0, 34, 30, 20, 30, 20, 6, 17, 25, 49, 53, 0)
s = 28: (0, 32, 27, 20, 39, 13, 3, 14, 49, 44, 29, 0)
s = 29: (0, 42, 33, 26, 24, 12, 7, 11, 25, 32, 46, 0)
s = 30: (0, 30, 28, 21, 28, 12, 5, 23, 23, 33, 27, 0)
s = 31: (0, 26, 18, 16, 19, 12, 5, 16, 30, 67, 26, 0)
s = 32: (0, 18, 41, 23, 29, 13, 6, 23, 25, 24, 36, 0)
s = 33: (0, 31, 27, 30, 29, 15, 4, 16, 38, 46, 27, 0)
s = 34: (0, 16, 47, 15, 21, 14, 6, 15, 21, 35, 32, 0)
s = 35: (0, 22, 41, 27, 25, 15, 4, 23, 35, 30, 34, 0)
s = 36: (0, 31, 27, 27, 24, 20, 3, 22, 38, 49, 39, 0)
s = 37: (0, 19, 18, 15, 45, 19, 4, 18, 24, 27, 24, 0)
s = 38: (0, 27, 28, 31, 24, 14, 3, 28, 22, 39, 22, 0)
s = 39: (0, 22, 25, 20, 23, 11, 4, 22, 31, 41, 22, 0)
s = 40: (0, 24, 28, 17, 37, 11, 3, 17, 26, 23, 34, 0)
s = 41: (0, 20, 29, 23, 27, 28, 5, 27, 21, 34, 27, 0)
s = 42: (0, 20, 20, 15, 40, 15, 5, 24, 49, 48, 36, 0)
s = 43: (0, 21, 21, 26, 36, 18, 3, 18, 37, 37, 24, 0)
s = 44: (0, 14, 32, 27, 20, 12, 3, 22, 22, 38, 24, 0)
s = 45: (0, 24, 33, 22, 19, 17, 6, 18, 32, 47, 51, 0)
s = 46: (0, 15, 20, 22, 26, 19, 4, 22, 33, 29, 30, 0)
s = 47: (0, 22, 33, 14, 23, 12, 4, 16, 36, 41, 23, 0)
s = 48: (0, 25, 18, 14, 40, 15, 5, 15, 28, 58, 41, 0)
s = 49: (0, 22, 18, 19, 32, 11, 4, 28, 57, 38, 19, 0)
s = 50: (0, 18, 26, 13, 16, 20, 3, 21, 40, 35, 18, 0)
s = 51: (0, 17, 20, 16, 23, 14, 4, 14, 41, 65, 35, 0)
s = 52: (0, 31, 17, 21, 37, 14, 5, 22, 35, 42, 18, 0)
s = 53: (0, 18, 29, 19, 22, 20, 6, 14, 35, 40, 21, 0)
s = 54: (0, 15, 34, 21, 27, 14, 6, 31, 28, 41, 24, 0)
s = 55: (0, 37, 42, 17, 20, 8, 4, 25, 34, 34, 20, 0)
s = 56: (0, 38, 27, 17, 33, 9, 3, 12, 51, 31, 28, 0)
s = 57: (0, 24, 26, 17, 24, 15, 4, 15, 38, 46, 27, 0)
s = 58: (0, 30, 24, 22, 21, 9, 5, 23, 40, 35, 30, 0)
s = 59: (0, 14, 20, 20, 26, 23, 3, 18, 41, 41, 22, 0)
s = 60: (0, 38, 20, 28, 34, 13, 3, 16, 25, 27, 30, 0)
s = 61: (0, 21, 34, 17, 26, 18, 6, 23, 60, 42, 40, 0)
s = 62: (0, 35, 31, 22, 29, 17, 6, 17, 36, 58, 33, 0)
s = 63: (0, 24, 23, 13, 17, 14, 5, 30, 25, 36, 30, 0)
s = 64: (0, 14, 24, 19, 14, 16, 5, 17, 37, 34, 38, 0)
s = 65: (0, 24, 18, 14, 19, 9, 6, 16, 41, 35, 27, 0)
s = 66: (0, 18, 21, 19, 33, 11, 5, 22, 27, 40, 39, 0)
s = 67: (0, 34, 24, 29, 21, 12, 4, 15, 30, 25, 35, 0)
s = 68: (0, 32, 41, 22, 22, 19, 4, 23, 32, 45, 44, 0)
s = 69: (0, 18, 25, 21, 19, 21, 4, 26, 46, 21, 26, 0)
s = 70: (0, 26, 20, 17, 26, 12, 5, 27, 27, 28, 36, 0)
s = 71: (0, 40, 26, 27, 31, 9, 6, 17, 30, 40, 40, 0)
s = 72: (0, 20, 28, 13, 22, 13, 6, 16, 38, 56, 43, 0)
s = 73: (0, 29, 22, 25, 16, 12, 3, 21, 43, 46, 33, 0)
s = 74: (0, 29, 25, 19, 23, 13, 3, 19, 30, 72, 33, 0)
s = 75: (0, 20, 14, 23, 18, 16, 4, 15, 40, 45, 35, 0)
s = 76: (0, 32, 40, 15, 36, 9, 9, 16, 31, 34, 32, 0)
s = 77: (0, 27, 24, 23, 20, 13, 4, 28, 28, 49, 20, 0)
s = 78: (0, 32, 27, 25, 18, 13, 3, 23, 26, 43, 50, 0)
s = 79: (0, 27, 19, 14, 19, 18, 4, 17, 35, 41, 25, 0)
s = 80: (0, 21, 25, 23, 25, 16, 4, 16, 50, 49, 33, 0)
s = 81: (0, 21, 26, 29, 27, 11, 5, 27, 35, 42, 34, 0)
s = 82: (0, 16, 33, 29, 22, 22, 3, 16, 36, 33, 55, 0)
s = 83: (0, 22, 29, 22, 23, 9, 7, 32, 30, 23, 44, 0)
s = 84: (0, 22, 16, 17, 25, 16, 4, 18, 33, 36, 27, 0)
s = 85: (0, 38, 24, 15, 29, 14, 5, 24, 37, 58, 24, 0)
s = 86: (0, 16, 30, 20, 24, 19, 4, 28, 43, 22, 35, 0)
s = 87: (0, 16, 28, 14, 19, 9, 5, 31, 34, 50, 28, 0)
s = 88: (0, 15, 23, 21, 38, 20, 4, 18, 26, 26, 28, 0)
s = 89: (0, 19, 21, 14, 29, 20, 3, 13, 35, 58, 29, 0)
s = 90: (0, 36, 26, 15, 28, 18, 4, 18, 34, 52, 33, 0)
s = 91: (0, 29, 36, 14, 18, 17, 4, 14, 23, 27, 33, 0)
s = 92: (0, 29, 23, 14, 27, 9, 3, 16, 38, 58, 19, 0)
s = 93: (0, 37, 25, 19, 18, 13, 3, 25, 44, 52, 19, 0)
s = 94: (0, 26, 29, 27, 28, 10, 5, 21, 45, 41, 20, 0)
s = 95: (0, 17, 18, 12, 38, 20, 3, 15, 21, 41, 31, 0)
s = 96: (0, 24, 26, 28, 14, 17, 3, 32, 53, 59, 35, 0)
s = 97: (0, 32, 26, 15, 37, 8, 5, 21, 24, 30, 17, 0)
s = 98: (0, 22, 15, 21, 32, 13, 5, 20, 40, 57, 19, 0)
s = 99: (0, 25, 20, 15, 35, 15, 6, 30, 38, 37, 31, 0)
s = 100: (0, 18, 23, 31, 16, 11, 5, 21, 46, 36, 25, 0)
s = 101: (0, 33, 27, 18, 19, 17, 5, 22, 33, 32, 29, 0)
s = 102: (0, 18, 35, 16, 18, 13, 3, 19, 34, 62, 35, 0)
s = 103: (0, 31, 21, 22, 41, 8, 6, 21, 44, 43, 16, 0)
s = 104: (0, 27, 24, 18, 39, 12, 5, 14, 43, 41, 41, 0)
s = 105: (0, 26, 24, 24, 23, 12, 4, 24, 34, 39, 34, 0)
s = 106: (0, 20, 34, 19, 30, 11, 4, 28, 27, 40, 32, 0)
s = 107: (0, 15, 15, 15, 28, 13, 3, 13, 27, 65, 27, 0)
s = 108: (0, 24, 21, 24, 29, 15, 5, 26, 30, 37, 20, 0)
s = 109: (0, 39, 22, 25, 33, 19, 5, 18, 26, 60, 35, 0)
s = 110: (0, 21, 24, 19, 28, 16, 3, 21, 48, 59, 22, 0)
s = 111: (0, 23, 31, 17, 18, 12, 4, 24, 31, 47, 27, 0)
s = 112: (0, 18, 20, 20, 22, 15, 4, 26, 27, 60, 36, 0)
s = 113: (0, 25, 21, 24, 16, 13, 4, 29, 24, 33, 35, 0)
s = 114: (0, 19, 34, 18, 18, 12, 5, 16, 25, 35, 19, 0)
s = 115: (0, 23, 26, 24, 26, 13, 4, 23, 43, 45, 27, 0)
s = 116: (0, 19, 18, 13, 24, 10, 3, 23, 33, 35, 34, 0)
s = 117: (0, 35, 30, 29, 26, 10, 5, 21, 24, 62, 21, 0)
s = 118: (0, 29, 28, 23, 23, 15, 3, 23, 37, 69, 39, 0)
s = 119: (0, 17, 23, 16, 44, 21, 5, 20, 24, 46, 39, 0)
s = 120: (0, 20, 25, 19, 32, 14, 5, 20, 47, 25, 33, 0)
s = 121: (0, 19, 22, 24, 32, 11, 5, 23, 43, 31, 33, 0)
s = 122: (0, 24, 23, 28, 24, 15, 7, 21, 33, 40, 29, 0)
s = 123: (0, 43, 42, 17, 24, 19, 7, 19, 32, 40, 17, 0)
s = 124: (0, 25, 22, 21, 18, 13, 4, 14, 22, 40, 27, 0)
s = 125: (0, 37, 21, 20, 26, 21, 4, 19, 35, 27, 19, 0)
s = 126: (0, 25, 27, 14, 21, 24, 5, 23, 28, 48, 19, 0)
s = 127: (0, 43, 21, 21, 22, 8, 5, 29, 56, 32, 49, 0)
s = 128: (0, 23, 23, 16, 40, 13, 4, 17, 24, 27, 24, 0)
s = 129: (0, 34, 24, 13, 24, 14, 6, 24, 39, 35, 41, 0)
s = 130: (0, 25, 26, 15, 29, 15, 5, 15, 47, 25, 22, 0)
s = 131: (0, 34, 35, 27, 21, 19, 5, 14, 48, 48, 40, 0)
s = 132: (0, 22, 48, 17, 19, 20, 4, 18, 25, 36, 26, 0)
s = 133: (0, 32, 23, 29, 21, 15, 4, 28, 37, 51, 32, 0)
s = 134: (0, 22, 36, 29, 28, 13, 5, 24, 38, 33, 19, 0)
s = 135: (0, 24, 24, 12, 14, 19, 3, 17, 19, 47, 30, 0)
s = 136: (0, 19, 24, 23, 20, 13, 6, 20, 26, 73, 18, 0)
s = 137: (0, 36, 18, 31, 29, 12, 4, 16, 33, 35, 29, 0)
s = 138: (0, 30, 42, 28, 20, 13, 4, 15, 34, 39, 26, 0)
s = 139: (0, 26, 24, 22, 26, 20, 6, 30, 40, 25, 23, 0)
s = 140: (0, 17, 31, 29, 29, 16, 7, 17, 29, 32, 23, 0)
s = 141: (0, 19, 27, 17, 34, 14, 6, 31, 59, 47, 41, 0)
s = 142: (0, 27, 23, 23, 24, 13, 4, 16, 35, 25, 29, 0)
s = 143: (0, 24, 27, 25, 30, 11, 6, 14, 44, 24, 30, 0)
s = 144: (0, 20, 40, 17, 37, 15, 5, 19, 40, 60, 38, 0)
s = 145: (0, 28, 28, 21, 22, 17, 3, 24, 58, 39, 22, 0)
s = 146: (0, 24, 24, 27, 26, 15, 5, 23, 20, 23, 20, 0)
s = 147: (0, 21, 19, 19, 16, 14, 6, 21, 51, 46, 32, 0)
s = 148: (0, 18, 16, 22, 24, 13, 3, 12, 32, 46, 29, 0)
s = 149: (0, 30, 27, 25, 24, 13, 5, 22, 39, 56, 28, 0)
s = 150: (0, 22, 30, 24, 28, 11, 5, 16, 26, 68, 49, 0)
s = 151: (0, 43, 31, 26, 32, 9, 5, 23, 32, 54, 23, 0)
s = 152: (0, 32, 15, 29, 26, 10, 5, 26, 34, 42, 31, 0)
s = 153: (0, 18, 21, 23, 21, 12, 4, 15, 24, 35, 38, 0)
s = 154: (0, 31, 18, 15, 33, 15, 4, 38, 20, 60, 33, 0)
s = 155: (0, 17, 40, 17, 28, 17, 4, 20, 42, 40, 18, 0)
s = 156: (0, 34, 33, 12, 17, 16, 4, 23, 34, 39, 41, 0)
s = 157: (0, 26, 25, 17, 32, 20, 6, 16, 29, 39, 25, 0)
s = 158: (0, 34, 23, 17, 19, 14, 5, 21, 48, 32, 34, 0)
s = 159: (0, 21, 29, 24, 26, 21, 6, 18, 51, 37, 20, 0)
s = 160: (0, 20, 28, 21, 25, 8, 6, 13, 36, 41, 17, 0)
s = 161: (0, 37, 15, 22, 28, 15, 7, 24, 29, 29, 24, 0)
s = 162: (0, 38, 35, 27, 16, 15, 7, 14, 23, 23, 28, 0)
s = 163: (0, 19, 21, 16, 29, 24, 5, 22, 31, 58, 42, 0)
s = 164: (0, 35, 18, 16, 29, 15, 4, 20, 55, 43, 35, 0)
s = 165: (0, 31, 37, 26, 27, 9, 4, 15, 22, 49, 38, 0)
s = 166: (0, 20, 19, 16, 26, 13, 6, 27, 29, 36, 49, 0)
s = 167: (0, 20, 28, 17, 25, 16, 5, 18, 31, 24, 35, 0)
s = 168: (0, 26, 16, 15, 18, 18, 3, 25, 31, 35, 22, 0)
s = 169: (0, 24, 39, 22, 15, 14, 5, 22, 35, 36, 50, 0)
s = 170: (0, 20, 18, 16, 22, 12, 5, 30, 37, 33, 26, 0)
s = 171: (0, 22, 34, 18, 29, 17, 4, 29, 31, 46, 16, 0)
s = 172: (0, 17, 35, 27, 21, 12, 4, 15, 50, 33, 30, 0)
s = 173: (0, 18, 29, 25, 30, 14, 4, 14, 33, 29, 30, 0)
s = 174: (0, 19, 16, 30, 19, 10, 3, 27, 30, 38, 41, 0)
s = 175: (0, 19, 29, 23, 31, 10, 5, 27, 19, 28, 38, 0)
s = 176: (0, 20, 24, 17, 20, 20, 5, 32, 26, 46, 18, 0)
s = 177: (0, 19, 38, 28, 15, 20, 4, 17, 51, 44, 26, 0)
s = 178: (0, 23, 16, 30, 26, 14, 5, 17, 41, 61, 33, 0)
s = 179: (0, 21, 17, 27, 38, 10, 6, 30, 36, 33, 34, 0)
s = 180: (0, 33, 36, 13, 17, 20, 3, 20, 54, 28, 32, 0)
s = 181: (0, 38, 21, 21, 23, 16, 3, 16, 42, 45, 37, 0)
s = 182: (0, 22, 32, 22, 19, 21, 5, 20, 37, 49, 27, 0)
s = 183: (0, 17, 23, 18, 17, 17, 6, 19, 52, 41, 28, 0)
s = 184: (0, 27, 16, 17, 31, 10, 4, 17, 42, 50, 35, 0)
s = 185: (0, 39, 22, 13, 16, 17, 5, 26, 32, 38, 34, 0)
s = 186: (0, 23, 37, 17, 28, 18, 4, 24, 32, 42, 25, 0)
s = 187: (0, 25, 32, 15, 33, 15, 3, 14, 29, 23, 34, 0)
s = 188: (0, 36, 21, 20, 18, 16, 3, 13, 35, 49, 38, 0)
s = 189: (0, 19, 22, 17, 36, 13, 4, 20, 27, 47, 33, 0)
s = 190: (0, 22, 23, 20, 31, 18, 4, 18, 25, 31, 41, 0)
s = 191: (0, 17, 34, 32, 18, 13, 6, 26, 32, 37, 29, 0)
s = 192: (0, 23, 17, 15, 25, 14, 6, 32, 45, 71, 20, 0)
s = 193: (0, 23, 29, 21, 24, 19, 6, 20, 50, 28, 18, 0)
s = 194: (0, 21, 15, 18, 17, 19, 3, 19, 35, 36, 21, 0)
s = 195: (0, 22, 33, 15, 24, 9, 5, 17, 45, 26, 19, 0)
s = 196: (0, 25, 17, 24, 36, 13, 6, 20, 37, 40, 23, 0)
s = 197: (0, 29, 21, 23, 37, 12, 4, 24, 41, 54, 24, 0)
s = 198: (0, 22, 26, 20, 25, 13, 5, 18, 31, 43, 34, 0)
s = 199: (0, 23, 47, 16, 19, 14, 5, 19, 42, 53, 18, 0)
s = 200: (0, 31, 19, 18, 26, 13, 6, 22, 35, 33, 25, 0)
************************************************************************
ES/LS-VALUES:
jobnr.   ES(i)    LS(i)
------------------------------------------------------------------------
  0        0        0
  1        0       46
  2        0       38
  3        0       40
  4        9       48
  5        9       66
  6       16       56
  7       20       61
  8       29       71
  9       16       70
 10        8       74
 11       37       80
************************************************************************
BIG-M-VALUES:
M1 = 38, M2 = 137
************************************************************************
